data;


param FN:= 0;
param D:= 100;
param U_Original:=
         1         1       -1.297917e+00
         2         1       -1.773354e+00
         3         1        3.732320e-01
         4         1       -1.808273e-01
         5         1        4.950816e-01
         6         1       -8.226879e-01
         7         1        4.917231e-01
         8         1        1.398704e+00
         9         1       -1.358455e+00
        10         1       -4.000813e-01
        11         1        8.757457e-01
        12         1        5.165928e-01
        13         1        4.704982e-01
        14         1        3.066986e-01
        15         1       -6.996079e-01
        16         1       -2.074629e+00
        17         1        1.189126e+00
        18         1       -1.133270e+00
        19         1        8.615509e-01
        20         1       -4.495679e-01
        21         1       -1.820400e+00
        22         1        6.302474e-01
        23         1       -3.669013e-01
        24         1       -4.178800e-01
        25         1        3.615145e-01
        26         1        2.026930e-01
        27         1        6.810294e-01
        28         1       -5.564648e-01
        29         1       -4.039600e-01
        30         1       -9.296080e-02
        31         1        3.090504e-01
        32         1       -1.599539e+00
        33         1       -1.563056e+00
        34         1       -7.876071e-01
        35         1       -1.044088e+00
        36         1        3.966601e-01
        37         1        2.279467e+00
        38         1       -1.209806e+00
        39         1        2.507537e+00
        40         1       -2.393133e-01
        41         1       -1.512786e-01
        42         1        8.789768e-01
        43         1        6.689400e-01
        44         1        1.418893e+00
        45         1       -4.289082e-01
        46         1       -2.695404e-01
        47         1       -3.453135e-01
        48         1        5.066511e-01
        49         1        6.690321e-01
        50         1        6.701255e-01
        51         1        1.173669e+00
        52         1       -2.207861e+00
        53         1       -4.647124e-01
        54         1       -4.433984e-01
        55         1       -1.329380e+00
        56         1       -1.800765e+00
        57         1       -6.674115e-01
        58         1        1.073407e+00
        59         1        3.902915e-01
        60         1       -9.629590e-02
        61         1        9.068350e-01
        62         1       -5.221310e-01
        63         1       -5.678230e-01
        64         1        1.207636e-01
        65         1       -8.900038e-02
        66         1       -5.692685e-01
        67         1        8.184125e-01
        68         1       -1.910445e+00
        69         1       -2.338500e-01
        70         1       -1.003675e+00
        71         1       -5.855991e-01
        72         1       -1.201334e+00
        73         1        1.195493e+00
        74         1        1.902604e+00
        75         1        5.313295e-01
        76         1       -7.036050e-01
        77         1       -1.060504e+00
        78         1       -1.387333e+00
        79         1        9.173699e-01
        80         1       -4.096658e-01
        81         1       -7.248711e-01
        82         1       -1.188653e-01
        83         1        1.928245e-01
        84         1        3.149718e-01
        85         1        6.562253e-01
        86         1        5.130345e-01
        87         1       -6.855678e-01
        88         1       -1.319597e+00
        89         1       -1.326460e+00
        90         1       -1.045789e+00
        91         1       -1.965339e+00
        92         1       -1.074042e+00
        93         1       -1.953124e-01
        94         1       -1.753869e-01
        95         1       -4.186809e-01
        96         1        5.175219e-01
        97         1       -6.384125e-01
        98         1        1.212408e+00
        99         1        4.355429e-01
       100         1       -3.688602e-02
         1         2       -7.550432e-01
         2         2       -8.145088e-01
         3         2        7.924919e-01
         4         2       -5.080488e-01
         5         2       -7.710877e-01
         6         2        5.938722e-01
         7         2       -2.374650e+00
         8         2        4.570864e-01
         9         2        3.753617e-01
        10         2        1.520183e-02
        11         2        8.244844e-02
        12         2       -1.011960e-01
        13         2        6.910387e-01
        14         2        5.966465e-01
        15         2        9.379400e-01
        16         2        5.077087e-01
        17         2        1.547496e+00
        18         2        4.733248e-01
        19         2       -1.961974e+00
        20         2       -2.750613e-01
        21         2        1.119419e+00
        22         2        2.461446e-01
        23         2       -1.123161e-01
        24         2        1.732754e+00
        25         2        1.243195e+00
        26         2       -4.592850e-01
        27         2        2.385552e-01
        28         2        4.909497e-01
        29         2       -7.034246e-01
        30         2       -4.683406e-01
        31         2        2.691254e-01
        32         2       -1.330082e+00
        33         2        4.650987e-01
        34         2       -7.581198e-01
        35         2       -1.028597e+00
        36         2        4.225627e-01
        37         2       -1.080270e+00
        38         2       -1.406527e+00
        39         2       -1.948027e+00
        40         2       -1.706786e-01
        41         2        2.886714e-01
        42         2        1.253118e+00
        43         2       -1.839936e+00
        44         2        6.827406e-01
        45         2       -1.310932e+00
        46         2       -5.227870e-01
        47         2       -4.677259e-01
        48         2       -9.619141e-02
        49         2       -8.190014e-02
        50         2        1.573358e+00
        51         2        1.503035e+00
        52         2        1.680381e-01
        53         2       -7.969644e-01
        54         2       -1.242872e-01
        55         2       -1.108910e+00
        56         2       -1.794020e-01
        57         2        1.191256e+00
        58         2       -4.399776e-01
        59         2        9.900553e-01
        60         2        1.609763e+00
        61         2        8.369473e-01
        62         2        1.147570e+00
        63         2       -4.608892e-01
        64         2        5.566868e-01
        65         2        1.134469e+00
        66         2       -2.770679e-01
        67         2       -1.137562e+00
        68         2        1.569986e+00
        69         2       -2.258289e-01
        70         2       -2.545823e+00
        71         2        2.612109e+00
        72         2       -1.949003e+00
        73         2        1.057543e+00
        74         2       -1.153557e+00
        75         2       -1.848433e-01
        76         2        2.303926e+00
        77         2       -2.640312e-01
        78         2       -4.292616e-01
        79         2        4.961309e-01
        80         2       -1.814554e+00
        81         2        3.126560e-02
        82         2       -9.567555e-02
        83         2        1.324558e+00
        84         2        6.232774e-01
        85         2       -2.027175e-01
        86         2       -2.247607e+00
        87         2       -2.421997e-01
        88         2       -1.655804e+00
        89         2       -4.513459e-01
        90         2       -8.884331e-02
        91         2        4.432682e-01
        92         2       -3.993515e-01
        93         2       -5.395069e-01
        94         2        6.287569e-01
        95         2       -5.146633e-01
        96         2       -3.221531e-01
        97         2       -7.435023e-01
        98         2        6.564059e-01
        99         2       -1.299433e+00
       100         2        1.472673e+00
         1         3        6.086329e-01
         2         3        1.336286e+00
         3         3        4.226694e-01
         4         3       -4.038420e-01
         5         3       -1.008140e+00
         6         3       -5.254003e-01
         7         3       -1.053290e-01
         8         3       -6.841780e-01
         9         3       -1.301628e+00
        10         3        2.895538e+00
        11         3       -4.595857e-01
        12         3       -1.648984e+00
        13         3       -4.543115e-01
        14         3        1.976254e-01
        15         3       -4.558326e-01
        16         3       -1.204768e+00
        17         3       -1.088527e+00
        18         3        5.364169e-01
        19         3       -6.605575e-01
        20         3        2.409158e-01
        21         3        9.875889e-01
        22         3        1.362825e+00
        23         3       -1.375669e+00
        24         3       -2.666572e-02
        25         3        1.633757e+00
        26         3       -1.375035e+00
        27         3        9.657727e-01
        28         3       -5.389422e-01
        29         3       -4.478438e-01
        30         3       -6.853656e-01
        31         3        5.303083e-01
        32         3        1.706895e+00
        33         3       -6.122708e-01
        34         3       -3.528262e-01
        35         3        1.818277e-01
        36         3        8.732641e-01
        37         3       -9.778889e-01
        38         3       -5.711247e-01
        39         3        3.528974e-01
        40         3        3.842005e-01
        41         3        1.296160e-01
        42         3        1.048078e+00
        43         3        8.964515e-01
        44         3        3.747183e-01
        45         3       -6.932611e-01
        46         3       -1.052590e+00
        47         3       -2.477876e-01
        48         3        5.938197e-02
        49         3       -1.041392e-01
        50         3       -1.141077e+00
        51         3       -2.215206e-01
        52         3        6.116175e-01
        53         3       -1.813454e-01
        54         3       -1.186562e+00
        55         3       -1.378593e-01
        56         3       -1.021583e+00
        57         3        4.757518e-01
        58         3       -2.226969e-01
        59         3        1.342523e+00
        60         3       -2.124973e+00
        61         3       -8.272430e-01
        62         3        9.149606e-01
        63         3       -1.530739e-01
        64         3       -1.254168e+00
        65         3        1.374978e+00
        66         3       -5.962193e-02
        67         3        1.066348e+00
        68         3       -5.886232e-01
        69         3        2.515893e+00
        70         3       -2.479463e+00
        71         3        1.081249e+00
        72         3        1.336603e-01
        73         3       -1.287332e+00
        74         3       -4.642211e-01
        75         3        4.481252e-03
        76         3       -7.492892e-01
        77         3       -1.466513e-01
        78         3        7.843894e-01
        79         3        9.733000e-01
        80         3        3.216185e-01
        81         3        4.899918e-01
        82         3        1.965670e-01
        83         3       -8.181058e-01
        84         3       -1.843884e-01
        85         3        8.695967e-01
        86         3        7.541049e-01
        87         3        8.532612e-01
        88         3       -9.449618e-01
        89         3       -1.897673e-01
        90         3       -2.220985e+00
        91         3        3.148281e-01
        92         3        1.905108e+00
        93         3       -4.110300e-01
        94         3       -9.733423e-01
        95         3        1.216675e+00
        96         3       -7.173639e-01
        97         3       -5.224255e-01
        98         3        1.860517e-01
        99         3        9.149031e-01
       100         3       -1.257394e+00
         1         4       -7.058231e-01
         2         4        5.782636e-01
         3         4        2.467968e-01
         4         4        1.194317e-01
         5         4       -9.471977e-01
         6         4       -1.712404e+00
         7         4        8.160892e-01
         8         4       -1.976943e+00
         9         4        1.319949e-01
        10         4        2.106162e+00
        11         4       -7.201719e-01
        12         4        1.496767e+00
        13         4        8.749358e-01
        14         4       -1.831477e-01
        15         4       -2.704453e-01
        16         4        6.846853e-01
        17         4        1.087666e+00
        18         4        1.199877e-02
        19         4        2.349878e-02
        20         4        4.531185e-01
        21         4       -1.459559e+00
        22         4       -2.041953e-01
        23         4        1.058396e+00
        24         4       -5.818660e-01
        25         4        6.151853e-01
        26         4        5.385226e-01
        27         4       -2.898690e-01
        28         4       -2.331578e-01
        29         4        3.738652e-01
        30         4        5.983313e-02
        31         4       -2.685214e-01
        32         4       -5.101335e-01
        33         4       -1.536120e-01
        34         4        6.804616e-01
        35         4        1.741358e+00
        36         4       -3.458340e-01
        37         4        1.319452e+00
        38         4        1.214518e+00
        39         4        7.607518e-01
        40         4       -2.159488e+00
        41         4        1.674996e+00
        42         4        8.286706e-01
        43         4       -9.359644e-01
        44         4        7.702101e-01
        45         4        5.929592e-01
        46         4        1.547016e+00
        47         4        8.022324e-01
        48         4        5.906152e-01
        49         4        1.476003e+00
        50         4       -5.085579e-01
        51         4       -2.265537e+00
        52         4       -6.536276e-01
        53         4       -5.859033e-01
        54         4       -3.564908e+00
        55         4        2.690664e-01
        56         4       -1.822085e+00
        57         4       -8.636884e-01
        58         4       -7.574193e-01
        59         4       -1.203198e+00
        60         4       -5.276900e-01
        61         4       -1.355515e-01
        62         4        5.091133e-01
        63         4       -6.764492e-01
        64         4       -5.565441e-02
        65         4        1.188776e+00
        66         4       -1.211875e+00
        67         4        1.248409e+00
        68         4        3.358027e-01
        69         4        6.141474e-01
        70         4       -1.013407e+00
        71         4       -1.186342e+00
        72         4        8.967131e-02
        73         4       -3.398546e-01
        74         4        2.064704e+00
        75         4       -6.288572e-01
        76         4       -8.124882e-01
        77         4       -1.622072e+00
        78         4        1.947248e+00
        79         4       -1.336590e+00
        80         4       -1.783915e+00
        81         4        2.475304e+00
        82         4        2.707868e-01
        83         4        5.614306e-01
        84         4       -3.837926e-03
        85         4        1.016459e+00
        86         4       -2.715971e+00
        87         4        2.010933e-02
        88         4       -4.094509e-02
        89         4       -1.178383e+00
        90         4       -1.005219e+00
        91         4       -9.367068e-01
        92         4       -3.026954e-01
        93         4       -1.249192e-03
        94         4       -1.186755e+00
        95         4        2.876185e-01
        96         4       -8.473853e-01
        97         4       -6.493650e-01
        98         4       -2.547438e-02
        99         4        1.521002e-01
       100         4       -2.569834e-02
         1         5       -2.222248e+00
         2         5        1.131359e+00
         3         5        1.465486e+00
         4         5        7.814958e-01
         5         5       -2.221781e+00
         6         5       -1.082623e+00
         7         5       -1.530730e-01
         8         5        8.956253e-01
         9         5        1.341419e+00
        10         5       -5.857966e-01
        11         5        1.984246e-01
        12         5       -1.654798e-01
        13         5        1.072726e+00
        14         5        5.716044e-01
        15         5        9.257464e-01
        16         5        3.502577e-02
        17         5        5.241350e-01
        18         5       -7.688840e-01
        19         5       -1.883524e+00
        20         5        2.066567e+00
        21         5        1.923459e+00
        22         5       -1.801625e+00
        23         5       -6.597340e-01
        24         5       -5.112999e-01
        25         5        7.797391e-01
        26         5       -9.143297e-01
        27         5       -5.643324e-01
        28         5        2.547028e+00
        29         5        3.587131e-01
        30         5       -1.319796e+00
        31         5        1.414086e+00
        32         5       -2.367513e-01
        33         5        1.355566e-01
        34         5       -6.114640e-01
        35         5        2.394268e-01
        36         5        9.034304e-01
        37         5        4.592522e-02
        38         5       -2.220807e-01
        39         5        2.630019e-01
        40         5        2.491603e-02
        41         5        8.219061e-01
        42         5       -1.411463e+00
        43         5       -7.507865e-02
        44         5        3.380102e-01
        45         5        8.046749e-01
        46         5        1.028102e-01
        47         5       -1.317288e-01
        48         5        1.463164e-01
        49         5        2.692218e-01
        50         5        7.709640e-01
        51         5        1.500703e+00
        52         5        8.512623e-01
        53         5        3.099532e-01
        54         5       -6.031903e-02
        55         5        1.218016e+00
        56         5        1.467306e-01
        57         5        2.710785e-01
        58         5        1.385094e+00
        59         5       -1.329353e-01
        60         5        2.681990e-01
        61         5       -8.612866e-02
        62         5       -5.033575e-01
        63         5       -2.123830e-01
        64         5       -1.960877e+00
        65         5       -1.273373e+00
        66         5       -9.177738e-01
        67         5        2.335571e+00
        68         5        1.496468e+00
        69         5       -8.397347e-01
        70         5        6.377764e-01
        71         5        1.069091e+00
        72         5       -5.522949e-01
        73         5       -9.374600e-01
        74         5        9.974610e-01
        75         5        1.750332e+00
        76         5       -5.470906e-01
        77         5       -1.498000e+00
        78         5        1.067010e+00
        79         5        2.011771e+00
        80         5        1.203487e+00
        81         5        4.708146e-02
        82         5       -1.081214e+00
        83         5       -7.251743e-02
        84         5        3.413946e-01
        85         5       -8.054930e-01
        86         5       -9.562388e-01
        87         5        5.059687e-01
        88         5        2.007935e+00
        89         5       -6.295998e-02
        90         5        8.094706e-01
        91         5        3.260342e-01
        92         5        3.117506e-02
        93         5       -5.517204e-01
        94         5        8.326763e-02
        95         5       -9.141478e-01
        96         5        5.165154e-01
        97         5        3.751252e-01
        98         5        1.176993e+00
        99         5       -2.086095e-01
       100         5        1.269167e+00
;
param X_Original:=
    1        1.210396e+00
    2        2.685634e+00
    3        4.624471e-01
    4        1.266026e+00
    5        8.114606e-01
    6        1.476553e+00
    7        2.814248e+00
    8        8.785360e-04
    9       -1.840095e+00
   10        7.211613e-01
   11       -4.646601e-01
   12       -3.179825e-01
   13        1.562762e+00
   14        1.211966e+00
   15       -3.096287e-01
   16        4.300787e-01
   17        1.848631e-01
   18       -6.264740e-01
   19        1.742339e+00
   20        2.359097e+00
   21       -1.283556e+00
   22       -5.531023e-01
   23        1.904131e+00
   24        8.293338e-01
   25       -1.157572e+00
   26       -4.270338e-02
   27       -1.022691e+00
   28       -3.763620e+00
   29       -3.524119e-01
   30        7.535656e-01
   31        1.610458e-01
   32       -9.375792e-01
   33       -3.020353e-01
   34        9.357070e-01
   35        2.011654e-01
   36       -1.227353e-01
   37        7.953931e-01
   38       -8.168090e-01
   39        9.581884e-01
   40       -1.492376e+00
   41       -3.190884e-01
   42        1.375645e+00
   43        9.645408e-01
   44       -1.324375e+00
   45       -2.110933e+00
   46       -5.440801e-02
   47       -1.050953e+00
   48        1.099071e+00
   49        9.987517e-01
   50       -1.370854e+00
   51       -1.486779e+00
   52       -2.198620e+00
   53        7.719265e-01
   54        6.922683e-01
   55       -2.379126e+00
   56        6.401954e-01
   57        3.871552e-02
   58       -2.088339e-01
   59        3.174294e-03
   60        1.919358e-01
   61        1.090566e+00
   62        3.886598e-01
   63        1.740231e-01
   64       -6.114245e-02
   65        1.716971e+00
   66        3.809290e-01
   67       -1.034051e+00
   68       -5.423648e-01
   69        2.964444e-02
   70       -1.147817e-02
   71       -4.594559e-01
   72        1.552308e-01
   73       -1.754533e+00
   74       -6.626639e-01
   75       -1.305133e-02
   76        1.325382e+00
   77       -1.451763e+00
   78       -1.116274e+00
   79       -2.353752e-01
   80       -2.155540e+00
   81        2.295257e+00
   82       -4.495553e-01
   83        5.782563e-01
   84       -1.132134e+00
   85       -4.155949e-01
   86        3.697750e-01
   87        3.715499e-01
   88       -1.536281e+00
   89       -1.824571e-01
   90        3.035158e-01
   91       -1.199620e+00
   92        8.658686e-01
   93        8.155701e-01
   94        6.852202e-01
   95       -8.858070e-01
   96        1.491145e-01
   97       -1.773328e+00
   98        1.050469e+00
   99       -1.039027e+00
  100       -7.073119e-01
;
param outliervec_original :=
    1    1
    2    1
    3    1
    4    1
    5    1
    6    1
    7    1
    8    1
    9    1
   10    1
   11    1
   12    1
   13    1
   14    1
   15    1
   16    1
   17    1
   18    1
   19    1
   20    1
   21    1
   22    1
   23    1
   24    0
   25    1
   26    1
   27    1
   28    0
   29    1
   30    1
   31    1
   32    1
   33    1
   34    1
   35    1
   36    1
   37    1
   38    1
   39    1
   40    1
   41    1
   42    1
   43    1
   44    1
   45    1
   46    0
   47    1
   48    1
   49    1
   50    1
   51    0
   52    0
   53    1
   54    1
   55    0
   56    1
   57    1
   58    1
   59    1
   60    1
   61    1
   62    0
   63    1
   64    1
   65    1
   66    1
   67    1
   68    1
   69    1
   70    1
   71    1
   72    1
   73    1
   74    1
   75    1
   76    1
   77    1
   78    1
   79    1
   80    0
   81    1
   82    1
   83    1
   84    1
   85    1
   86    1
   87    1
   88    1
   89    1
   90    1
   91    0
   92    1
   93    0
   94    1
   95    1
   96    1
   97    1
   98    1
   99    1
  100    1
;
param d:= 55;
param r:=5;
param p:=0.900000;
param M:=1000;
param U:=
         1         1       -1.297917e+00
         2         1       -8.226879e-01
         3         1        1.398704e+00
         4         1       -1.358455e+00
         5         1        8.757457e-01
         6         1       -6.996079e-01
         7         1       -2.074629e+00
         8         1        1.189126e+00
         9         1        8.615509e-01
        10         1       -3.669013e-01
        11         1       -4.178800e-01
        12         1        3.615145e-01
        13         1       -5.564648e-01
        14         1       -4.039600e-01
        15         1       -9.296080e-02
        16         1       -1.599539e+00
        17         1       -1.563056e+00
        18         1       -7.876071e-01
        19         1        2.279467e+00
        20         1       -1.209806e+00
        21         1       -1.512786e-01
        22         1        8.789768e-01
        23         1       -4.289082e-01
        24         1       -2.695404e-01
        25         1        1.173669e+00
        26         1       -2.207861e+00
        27         1       -4.433984e-01
        28         1       -1.329380e+00
        29         1       -6.674115e-01
        30         1        3.902915e-01
        31         1       -9.629590e-02
        32         1        9.068350e-01
        33         1       -5.221310e-01
        34         1       -5.678230e-01
        35         1       -8.900038e-02
        36         1       -5.692685e-01
        37         1       -2.338500e-01
        38         1       -1.003675e+00
        39         1       -5.855991e-01
        40         1       -1.201334e+00
        41         1        1.902604e+00
        42         1       -7.036050e-01
        43         1       -1.387333e+00
        44         1       -4.096658e-01
        45         1        1.928245e-01
        46         1        5.130345e-01
        47         1       -1.319597e+00
        48         1       -1.326460e+00
        49         1       -1.045789e+00
        50         1       -1.965339e+00
        51         1       -1.953124e-01
        52         1       -1.753869e-01
        53         1        5.175219e-01
        54         1        4.355429e-01
        55         1       -3.688602e-02
         1         2       -7.550432e-01
         2         2        5.938722e-01
         3         2        4.570864e-01
         4         2        3.753617e-01
         5         2        8.244844e-02
         6         2        9.379400e-01
         7         2        5.077087e-01
         8         2        1.547496e+00
         9         2       -1.961974e+00
        10         2       -1.123161e-01
        11         2        1.732754e+00
        12         2        1.243195e+00
        13         2        4.909497e-01
        14         2       -7.034246e-01
        15         2       -4.683406e-01
        16         2       -1.330082e+00
        17         2        4.650987e-01
        18         2       -7.581198e-01
        19         2       -1.080270e+00
        20         2       -1.406527e+00
        21         2        2.886714e-01
        22         2        1.253118e+00
        23         2       -1.310932e+00
        24         2       -5.227870e-01
        25         2        1.503035e+00
        26         2        1.680381e-01
        27         2       -1.242872e-01
        28         2       -1.108910e+00
        29         2        1.191256e+00
        30         2        9.900553e-01
        31         2        1.609763e+00
        32         2        8.369473e-01
        33         2        1.147570e+00
        34         2       -4.608892e-01
        35         2        1.134469e+00
        36         2       -2.770679e-01
        37         2       -2.258289e-01
        38         2       -2.545823e+00
        39         2        2.612109e+00
        40         2       -1.949003e+00
        41         2       -1.153557e+00
        42         2        2.303926e+00
        43         2       -4.292616e-01
        44         2       -1.814554e+00
        45         2        1.324558e+00
        46         2       -2.247607e+00
        47         2       -1.655804e+00
        48         2       -4.513459e-01
        49         2       -8.884331e-02
        50         2        4.432682e-01
        51         2       -5.395069e-01
        52         2        6.287569e-01
        53         2       -3.221531e-01
        54         2       -1.299433e+00
        55         2        1.472673e+00
         1         3        6.086329e-01
         2         3       -5.254003e-01
         3         3       -6.841780e-01
         4         3       -1.301628e+00
         5         3       -4.595857e-01
         6         3       -4.558326e-01
         7         3       -1.204768e+00
         8         3       -1.088527e+00
         9         3       -6.605575e-01
        10         3       -1.375669e+00
        11         3       -2.666572e-02
        12         3        1.633757e+00
        13         3       -5.389422e-01
        14         3       -4.478438e-01
        15         3       -6.853656e-01
        16         3        1.706895e+00
        17         3       -6.122708e-01
        18         3       -3.528262e-01
        19         3       -9.778889e-01
        20         3       -5.711247e-01
        21         3        1.296160e-01
        22         3        1.048078e+00
        23         3       -6.932611e-01
        24         3       -1.052590e+00
        25         3       -2.215206e-01
        26         3        6.116175e-01
        27         3       -1.186562e+00
        28         3       -1.378593e-01
        29         3        4.757518e-01
        30         3        1.342523e+00
        31         3       -2.124973e+00
        32         3       -8.272430e-01
        33         3        9.149606e-01
        34         3       -1.530739e-01
        35         3        1.374978e+00
        36         3       -5.962193e-02
        37         3        2.515893e+00
        38         3       -2.479463e+00
        39         3        1.081249e+00
        40         3        1.336603e-01
        41         3       -4.642211e-01
        42         3       -7.492892e-01
        43         3        7.843894e-01
        44         3        3.216185e-01
        45         3       -8.181058e-01
        46         3        7.541049e-01
        47         3       -9.449618e-01
        48         3       -1.897673e-01
        49         3       -2.220985e+00
        50         3        3.148281e-01
        51         3       -4.110300e-01
        52         3       -9.733423e-01
        53         3       -7.173639e-01
        54         3        9.149031e-01
        55         3       -1.257394e+00
         1         4       -7.058231e-01
         2         4       -1.712404e+00
         3         4       -1.976943e+00
         4         4        1.319949e-01
         5         4       -7.201719e-01
         6         4       -2.704453e-01
         7         4        6.846853e-01
         8         4        1.087666e+00
         9         4        2.349878e-02
        10         4        1.058396e+00
        11         4       -5.818660e-01
        12         4        6.151853e-01
        13         4       -2.331578e-01
        14         4        3.738652e-01
        15         4        5.983313e-02
        16         4       -5.101335e-01
        17         4       -1.536120e-01
        18         4        6.804616e-01
        19         4        1.319452e+00
        20         4        1.214518e+00
        21         4        1.674996e+00
        22         4        8.286706e-01
        23         4        5.929592e-01
        24         4        1.547016e+00
        25         4       -2.265537e+00
        26         4       -6.536276e-01
        27         4       -3.564908e+00
        28         4        2.690664e-01
        29         4       -8.636884e-01
        30         4       -1.203198e+00
        31         4       -5.276900e-01
        32         4       -1.355515e-01
        33         4        5.091133e-01
        34         4       -6.764492e-01
        35         4        1.188776e+00
        36         4       -1.211875e+00
        37         4        6.141474e-01
        38         4       -1.013407e+00
        39         4       -1.186342e+00
        40         4        8.967131e-02
        41         4        2.064704e+00
        42         4       -8.124882e-01
        43         4        1.947248e+00
        44         4       -1.783915e+00
        45         4        5.614306e-01
        46         4       -2.715971e+00
        47         4       -4.094509e-02
        48         4       -1.178383e+00
        49         4       -1.005219e+00
        50         4       -9.367068e-01
        51         4       -1.249192e-03
        52         4       -1.186755e+00
        53         4       -8.473853e-01
        54         4        1.521002e-01
        55         4       -2.569834e-02
         1         5       -2.222248e+00
         2         5       -1.082623e+00
         3         5        8.956253e-01
         4         5        1.341419e+00
         5         5        1.984246e-01
         6         5        9.257464e-01
         7         5        3.502577e-02
         8         5        5.241350e-01
         9         5       -1.883524e+00
        10         5       -6.597340e-01
        11         5       -5.112999e-01
        12         5        7.797391e-01
        13         5        2.547028e+00
        14         5        3.587131e-01
        15         5       -1.319796e+00
        16         5       -2.367513e-01
        17         5        1.355566e-01
        18         5       -6.114640e-01
        19         5        4.592522e-02
        20         5       -2.220807e-01
        21         5        8.219061e-01
        22         5       -1.411463e+00
        23         5        8.046749e-01
        24         5        1.028102e-01
        25         5        1.500703e+00
        26         5        8.512623e-01
        27         5       -6.031903e-02
        28         5        1.218016e+00
        29         5        2.710785e-01
        30         5       -1.329353e-01
        31         5        2.681990e-01
        32         5       -8.612866e-02
        33         5       -5.033575e-01
        34         5       -2.123830e-01
        35         5       -1.273373e+00
        36         5       -9.177738e-01
        37         5       -8.397347e-01
        38         5        6.377764e-01
        39         5        1.069091e+00
        40         5       -5.522949e-01
        41         5        9.974610e-01
        42         5       -5.470906e-01
        43         5        1.067010e+00
        44         5        1.203487e+00
        45         5       -7.251743e-02
        46         5       -9.562388e-01
        47         5        2.007935e+00
        48         5       -6.295998e-02
        49         5        8.094706e-01
        50         5        3.260342e-01
        51         5       -5.517204e-01
        52         5        8.326763e-02
        53         5        5.165154e-01
        54         5       -2.086095e-01
        55         5        1.269167e+00
;

param theta:=
    1        3.597048e-01
    2        1.079365e-01
    3       -3.003853e-01
    4       -4.156705e-02
    5       -1.487235e+00
;
param X_true:=
    1        2.603156e+00
    2        1.607292e+00
    3       -4.918562e-01
    4       -2.057630e+00
    5        1.967932e-01
    6       -1.379050e+00
    7       -4.101111e-01
    8        9.701985e-02
    9        3.096824e+00
   10        1.206317e+00
   11        8.293338e-01
   12       -1.411759e+00
   13       -3.763620e+00
   14       -6.357371e-01
   15        2.082244e+00
   16       -8.583428e-01
   17       -5.233397e-01
   18        6.219550e-01
   19        8.739306e-01
   20       -1.356287e-01
   21       -1.354185e+00
   22        2.201335e+00
   23       -1.308921e+00
   24       -5.440801e-02
   25       -1.486779e+00
   26       -2.198620e+00
   27        4.214093e-01
   28       -2.379126e+00
   29       -6.216566e-01
   30        9.169825e-02
   31        4.004841e-01
   32        7.987497e-01
   33        3.886598e-01
   34        1.359672e-01
   35        1.521805e+00
   36        1.198555e+00
   37        3.591254e-01
   38       -7.974189e-01
   39       -1.794170e+00
   40        1.350216e-01
   41       -8.699731e-01
   42        1.068088e+00
   43       -2.448819e+00
   44       -2.155540e+00
   45        5.425884e-01
   46        1.250467e+00
   47       -3.354104e+00
   48       -3.262292e-01
   49       -8.807031e-01
   50       -1.199620e+00
   51        8.155701e-01
   52        2.226473e-01
   53       -3.660881e-01
   54        4.551640e-02
   55       -1.363093e+00
;
param X:=
    1        1.210396e+00
    2        1.476553e+00
    3        8.785360e-04
    4       -1.840095e+00
    5       -4.646601e-01
    6       -3.096287e-01
    7        4.300787e-01
    8        1.848631e-01
    9        1.742339e+00
   10        1.904131e+00
   11        8.293338e-01
   12       -1.157572e+00
   13       -3.763620e+00
   14       -3.524119e-01
   15        7.535656e-01
   16       -9.375792e-01
   17       -3.020353e-01
   18        9.357070e-01
   19        7.953931e-01
   20       -8.168090e-01
   21       -3.190884e-01
   22        1.375645e+00
   23       -2.110933e+00
   24       -5.440801e-02
   25       -1.486779e+00
   26       -2.198620e+00
   27        6.922683e-01
   28       -2.379126e+00
   29        3.871552e-02
   30        3.174294e-03
   31        1.919358e-01
   32        1.090566e+00
   33        3.886598e-01
   34        1.740231e-01
   35        1.716971e+00
   36        3.809290e-01
   37        2.964444e-02
   38       -1.147817e-02
   39       -4.594559e-01
   40        1.552308e-01
   41       -6.626639e-01
   42        1.325382e+00
   43       -1.116274e+00
   44       -2.155540e+00
   45        5.782563e-01
   46        3.697750e-01
   47       -1.536281e+00
   48       -1.824571e-01
   49        3.035158e-01
   50       -1.199620e+00
   51        8.155701e-01
   52        6.852202e-01
   53        1.491145e-01
   54       -1.039027e+00
   55       -7.073119e-01
;
param outliervec:=
    1    1
    2    1
    3    1
    4    1
    5    1
    6    1
    7    1
    8    1
    9    1
   10    1
   11    0
   12    1
   13    0
   14    1
   15    1
   16    1
   17    1
   18    1
   19    1
   20    1
   21    1
   22    1
   23    1
   24    0
   25    0
   26    0
   27    1
   28    0
   29    1
   30    1
   31    1
   32    1
   33    0
   34    1
   35    1
   36    1
   37    1
   38    1
   39    1
   40    1
   41    1
   42    1
   43    1
   44    0
   45    1
   46    1
   47    1
   48    1
   49    1
   50    0
   51    0
   52    1
   53    1
   54    1
   55    1
; 
param greedy_time :=         2.261000e-01
;